Minimize
  - 21 y_0 - 25 y_1 - 12 y_2 - 5 y_3 - 14 y_4 - 16 y_5 - 22 y_6 - 13 y_7
   - 22 y_8 - 15 y_9 - 27 y_10 - 13 y_11 - 6 y_12 - 31 y_14 - 8 y_15
   - 17 y_16 - 20 y_17 - 16 y_18 - 27 y_19 + 330 Constant
Subject To
 c_0: y_14 = 1
 c_1_0: y_0 + y_17 >= 1
 c_1_1: y_1 >= 1
 c_1_2: y_2 >= 1
 c_1_3: y_3 + y_13 >= 1
 c_1_4: y_4 + y_5 >= 1
 c_1_5: y_4 + y_5 >= 1
 c_1_6: y_6 >= 1
 c_1_7: y_7 >= 1
 c_1_8: y_8 >= 1
 c_1_9: y_9 + y_16 + y_18 >= 1
 c_1_10: y_10 >= 1
 c_1_11: y_11 >= 1
 c_1_12: y_12 >= 1
 c_1_13: y_3 + y_13 >= 1
 c_1_14: y_14 >= 1
 c_1_15: y_15 >= 1
 c_1_16: y_9 + y_16 + y_18 >= 1
 c_1_17: y_0 + y_17 >= 1
 c_1_18: y_9 + y_16 + y_18 >= 1
 c_1_19: y_19 >= 1
Bounds
 Constant = 1
Binaries
 y_0 y_1 y_2 y_3 y_4 y_5 y_6 y_7 y_8 y_9 y_10 y_11 y_12 y_13 y_14 y_15 y_16
 y_17 y_18 y_19
End
